230816.85,20.09,22.01
235579.19,19.69,21.56
247020.8,18.77,20.56
231366.23,20.04,21.95
233326.62,19.88,21.77
241308.14,19.22,21.05
241899.39,19.17,21.0
230235.2,20.14,22.06
232015.31,19.99,21.89
239837.73,19.34,21.18
222579.52,20.83,22.82
234896.75,19.74,21.62
240105.32,19.31,21.16
239723.44,19.34,21.19
241749.12,19.18,21.01
233339.95,19.87,21.77
237606.31,19.52,21.38
233370.39,19.87,21.77
226800.35,20.45,22.4
227516.86,20.38,22.33
